p td 120 119
0 1
0 2
0 43
0 84
1 3
1 4
1 7
1 8
1 9
1 23
1 27
1 28
1 31
1 32
1 33
1 34
1 35
1 53
1 56
1 57
1 61
1 66
1 77
1 78
1 81
1 98
2 5
2 6
2 17
2 42
2 52
2 64
2 70
2 76
2 90
2 91
3 103
3 119
4 12
4 19
4 20
4 92
4 114
5 14
5 15
6 10
6 13
6 26
6 40
6 47
6 60
6 65
6 71
6 96
6 104
6 105
6 110
6 115
7 18
7 21
7 44
7 46
7 51
7 80
7 100
8 29
8 38
8 41
8 50
8 69
9 45
10 11
10 25
10 55
10 72
10 93
10 106
10 107
10 108
10 113
11 22
11 30
11 88
12 16
12 36
15 24
16 37
16 97
16 109
18 39
20 102
23 73
27 59
27 79
29 62
29 86
32 75
33 48
33 85
34 63
34 111
37 49
37 58
37 89
43 54
43 99
53 67
54 74
59 82
59 83
59 94
60 117
61 87
63 68
68 95
79 118
95 101
107 112
107 116
